Instance0
Gap
100.00%
100.00%
75.42%
73.26%
64.88%
58.51%
53.96%
53.81%
53.24%
50.56%
33.43%
33.22%
33.01%
32.83%
32.79%
32.74%
32.69%
32.61%
CPXPARAM_MIP_Cuts_Disjunctive-MIRCut:Disjunctive 6
CPXPARAM_MIP_Cuts_Disjunctive-MIRCut:MIRCut 11
Instance1
Gap
100.00%
100.00%
100.00%
99.28%
95.31%
63.12%
54.59%
53.99%
53.63%
53.59%
46.18%
CPXPARAM_MIP_Cuts_Disjunctive-MIRCut:Disjunctive 0
CPXPARAM_MIP_Cuts_Disjunctive-MIRCut:MIRCut 16
Instance2
Gap
100.00%
100.00%
68.57%
60.19%
57.07%
56.45%
47.83%
46.54%
45.66%
45.00%
44.58%
44.53%
43.44%
33.65%
33.59%
33.56%
33.55%
33.55%
33.36%
CPXPARAM_MIP_Cuts_Disjunctive-MIRCut:Disjunctive 8
CPXPARAM_MIP_Cuts_Disjunctive-MIRCut:MIRCut 4
Instance3
Gap
100.00%
100.00%
99.62%
99.49%
96.38%
90.91%
88.41%
88.33%
88.05%
85.11%
84.92%
84.81%
CPXPARAM_MIP_Cuts_Disjunctive-MIRCut:Disjunctive 0
CPXPARAM_MIP_Cuts_Disjunctive-MIRCut:MIRCut 9
Instance4
Gap
100.00%
100.00%
100.00%
76.86%
72.59%
66.20%
57.70%
57.69%
57.62%
57.59%
56.62%
56.16%
56.08%
56.08%
56.06%
51.66%
51.49%
CPXPARAM_MIP_Cuts_Disjunctive-MIRCut:Disjunctive 5
CPXPARAM_MIP_Cuts_Disjunctive-MIRCut:MIRCut 6
Instance5
Gap
100.00%
100.00%
100.00%
99.40%
99.04%
89.30%
65.81%
62.41%
62.28%
61.57%
61.45%
61.28%
CPXPARAM_MIP_Cuts_Disjunctive-MIRCut:Disjunctive 0
CPXPARAM_MIP_Cuts_Disjunctive-MIRCut:MIRCut 12
Instance6
Gap
100.00%
100.00%
69.98%
65.46%
61.28%
49.10%
41.41%
37.35%
36.11%
35.98%
35.92%
35.14%
35.04%
35.03%
34.97%
34.92%
34.87%
34.67%
34.57%
34.48%
34.29%
34.23%
34.00%
33.97%
33.82%
33.75%
33.68%
33.34%
33.09%
32.78%
32.78%
31.92%
CPXPARAM_MIP_Cuts_Disjunctive-MIRCut:Disjunctive 10
CPXPARAM_MIP_Cuts_Disjunctive-MIRCut:MIRCut 4
Instance7
Gap
100.00%
100.00%
100.00%
99.99%
92.16%
83.54%
82.78%
80.25%
CPXPARAM_MIP_Cuts_Disjunctive-MIRCut:Disjunctive 0
CPXPARAM_MIP_Cuts_Disjunctive-MIRCut:MIRCut 10
Instance8
Gap
100.00%
100.00%
59.21%
53.34%
45.00%
44.69%
42.87%
42.33%
42.17%
42.15%
41.60%
41.60%
22.89%
22.87%
CPXPARAM_MIP_Cuts_Disjunctive-MIRCut:Disjunctive 1
CPXPARAM_MIP_Cuts_Disjunctive-MIRCut:MIRCut 13
Instance9
Gap
100.00%
100.00%
100.00%
99.37%
99.21%
92.80%
88.53%
86.94%
86.43%
86.35%
86.27%
82.00%
81.91%
81.77%
81.74%
81.45%
81.19%
81.04%
80.70%
80.52%
79.10%
78.86%
CPXPARAM_MIP_Cuts_Disjunctive-MIRCut:Disjunctive 11
CPXPARAM_MIP_Cuts_Disjunctive-MIRCut:MIRCut 9
Instance10
Gap
100.00%
100.00%
62.81%
59.89%
50.60%
35.61%
34.97%
34.29%
32.44%
31.98%
31.97%
22.67%
20.81%
CPXPARAM_MIP_Cuts_Disjunctive-MIRCut:Disjunctive 0
CPXPARAM_MIP_Cuts_Disjunctive-MIRCut:MIRCut 7
Instance11
Gap
100.00%
100.00%
99.97%
99.93%
91.86%
89.10%
88.31%
86.68%
86.59%
86.40%
85.70%
84.90%
82.82%
82.63%
CPXPARAM_MIP_Cuts_Disjunctive-MIRCut:Disjunctive 0
CPXPARAM_MIP_Cuts_Disjunctive-MIRCut:MIRCut 12
Instance12
Gap
100.00%
100.00%
69.71%
64.56%
53.72%
53.08%
52.51%
50.77%
49.54%
34.93%
34.67%
34.51%
34.49%
33.79%
CPXPARAM_MIP_Cuts_Disjunctive-MIRCut:Disjunctive 2
CPXPARAM_MIP_Cuts_Disjunctive-MIRCut:MIRCut 7
Instance13
Gap
100.00%
100.00%
100.00%
99.35%
99.30%
94.29%
91.09%
90.21%
86.27%
85.62%
84.12%
83.67%
83.09%
69.88%
69.84%
69.17%
69.11%
CPXPARAM_MIP_Cuts_Disjunctive-MIRCut:Disjunctive 1
CPXPARAM_MIP_Cuts_Disjunctive-MIRCut:MIRCut 14
Instance14
Gap
100.00%
100.00%
67.25%
61.80%
57.45%
50.87%
46.78%
45.13%
44.39%
35.57%
35.48%
34.59%
34.59%
34.59%
30.10%
29.25%
CPXPARAM_MIP_Cuts_Disjunctive-MIRCut:Disjunctive 2
CPXPARAM_MIP_Cuts_Disjunctive-MIRCut:MIRCut 8
Instance15
Gap
100.00%
100.00%
99.71%
99.31%
88.22%
75.61%
75.61%
75.61%
75.32%
62.72%
55.38%
CPXPARAM_MIP_Cuts_Disjunctive-MIRCut:Disjunctive 0
CPXPARAM_MIP_Cuts_Disjunctive-MIRCut:MIRCut 11
Instance16
Gap
100.00%
100.00%
60.68%
59.49%
50.57%
30.64%
30.09%
28.10%
26.40%
24.84%
24.84%
18.26%
18.20%
CPXPARAM_MIP_Cuts_Disjunctive-MIRCut:Disjunctive 2
CPXPARAM_MIP_Cuts_Disjunctive-MIRCut:MIRCut 7
Instance17
Gap
100.00%
100.00%
100.00%
99.43%
99.32%
93.63%
86.11%
85.40%
84.52%
84.21%
84.04%
83.91%
83.83%
83.80%
82.91%
CPXPARAM_MIP_Cuts_Disjunctive-MIRCut:Disjunctive 4
CPXPARAM_MIP_Cuts_Disjunctive-MIRCut:MIRCut 11
Instance18
Gap
100.00%
100.00%
57.84%
51.78%
45.34%
31.80%
26.75%
26.72%
26.57%
26.37%
26.35%
23.89%
23.85%
22.86%
22.38%
22.30%
21.90%
21.90%
21.89%
18.58%
18.24%
CPXPARAM_MIP_Cuts_Disjunctive-MIRCut:Disjunctive 10
CPXPARAM_MIP_Cuts_Disjunctive-MIRCut:MIRCut 7
Instance19
Gap
100.00%
100.00%
99.54%
99.29%
93.70%
86.31%
84.80%
84.16%
82.37%
CPXPARAM_MIP_Cuts_Disjunctive-MIRCut:Disjunctive 1
CPXPARAM_MIP_Cuts_Disjunctive-MIRCut:MIRCut 12
Instance20
Gap
100.00%
100.00%
89.26%
78.36%
62.92%
62.55%
60.13%
58.72%
56.50%
55.97%
49.26%
49.15%
49.13%
49.10%
49.04%
48.57%
CPXPARAM_MIP_Cuts_Disjunctive-MIRCut:Disjunctive 6
CPXPARAM_MIP_Cuts_Disjunctive-MIRCut:MIRCut 8
Instance21
Gap
100.00%
100.00%
100.00%
99.52%
98.54%
91.93%
89.95%
85.30%
83.77%
83.64%
75.31%
75.24%
74.23%
71.47%
67.35%
CPXPARAM_MIP_Cuts_Disjunctive-MIRCut:Disjunctive 3
CPXPARAM_MIP_Cuts_Disjunctive-MIRCut:MIRCut 15
Instance22
Gap
100.00%
100.00%
88.62%
70.72%
49.95%
42.89%
39.29%
34.69%
34.44%
31.20%
30.63%
30.56%
30.40%
CPXPARAM_MIP_Cuts_Disjunctive-MIRCut:Disjunctive 6
CPXPARAM_MIP_Cuts_Disjunctive-MIRCut:MIRCut 8
Instance23
Gap
100.00%
100.00%
99.78%
99.46%
91.87%
44.26%
43.06%
38.14%
CPXPARAM_MIP_Cuts_Disjunctive-MIRCut:Disjunctive 0
CPXPARAM_MIP_Cuts_Disjunctive-MIRCut:MIRCut 9
Instance24
Gap
100.00%
100.00%
84.00%
78.89%
64.96%
59.71%
57.12%
57.09%
56.89%
52.05%
51.98%
51.93%
51.86%
41.68%
41.55%
41.54%
41.54%
41.29%
CPXPARAM_MIP_Cuts_Disjunctive-MIRCut:Disjunctive 7
CPXPARAM_MIP_Cuts_Disjunctive-MIRCut:MIRCut 5
Instance25
Gap
100.00%
100.00%
99.59%
99.18%
94.51%
73.80%
70.03%
68.06%
68.00%
61.42%
CPXPARAM_MIP_Cuts_Disjunctive-MIRCut:Disjunctive 0
CPXPARAM_MIP_Cuts_Disjunctive-MIRCut:MIRCut 15
Instance26
Gap
100.00%
100.00%
84.48%
68.92%
46.15%
37.22%
34.68%
34.42%
34.34%
33.89%
33.60%
33.30%
31.92%
31.50%
30.41%
30.20%
29.70%
28.16%
27.11%
26.86%
26.85%
26.85%
23.76%
23.55%
CPXPARAM_MIP_Cuts_Disjunctive-MIRCut:Disjunctive 14
CPXPARAM_MIP_Cuts_Disjunctive-MIRCut:MIRCut 5
Instance27
Gap
100.00%
100.00%
99.81%
99.61%
95.18%
86.50%
67.06%
53.46%
CPXPARAM_MIP_Cuts_Disjunctive-MIRCut:Disjunctive 0
CPXPARAM_MIP_Cuts_Disjunctive-MIRCut:MIRCut 8
Instance28
Gap
100.00%
100.00%
100.00%
69.66%
57.32%
54.19%
53.95%
53.15%
45.76%
44.84%
43.88%
42.50%
42.20%
41.86%
41.83%
41.78%
35.23%
35.15%
35.10%
35.06%
35.02%
34.90%
34.87%
34.81%
34.77%
34.76%
34.75%
34.72%
32.12%
32.11%
CPXPARAM_MIP_Cuts_Disjunctive-MIRCut:Disjunctive 18
CPXPARAM_MIP_Cuts_Disjunctive-MIRCut:MIRCut 4
Instance29
Gap
100.00%
100.00%
100.00%
100.00%
94.42%
83.59%
78.90%
67.54%
62.58%
60.98%
60.30%
CPXPARAM_MIP_Cuts_Disjunctive-MIRCut:Disjunctive 0
CPXPARAM_MIP_Cuts_Disjunctive-MIRCut:MIRCut 14
Instance30
Gap
100.00%
100.00%
69.10%
61.90%
52.97%
49.27%
46.86%
45.51%
44.60%
44.01%
41.92%
40.58%
34.62%
33.13%
32.57%
32.29%
31.30%
31.04%
30.96%
30.85%
30.82%
30.82%
30.66%
30.56%
30.49%
30.43%
30.43%
28.64%
27.99%
27.98%
CPXPARAM_MIP_Cuts_Disjunctive-MIRCut:Disjunctive 23
CPXPARAM_MIP_Cuts_Disjunctive-MIRCut:MIRCut 5
Instance31
Gap
100.00%
100.00%
99.75%
99.32%
91.59%
82.26%
75.91%
70.16%
69.31%
38.57%
36.23%
35.05%
35.05%
35.05%
0.77%
0.77%
0.77%
CPXPARAM_MIP_Cuts_Disjunctive-MIRCut:Disjunctive 0
CPXPARAM_MIP_Cuts_Disjunctive-MIRCut:MIRCut 1
Instance32
Gap
100.00%
100.00%
100.00%
69.77%
63.45%
56.77%
48.84%
46.38%
45.70%
45.29%
44.37%
44.28%
44.27%
41.99%
37.29%
34.17%
34.15%
CPXPARAM_MIP_Cuts_Disjunctive-MIRCut:Disjunctive 2
CPXPARAM_MIP_Cuts_Disjunctive-MIRCut:MIRCut 11
Instance33
Gap
100.00%
100.00%
100.00%
98.79%
92.69%
81.05%
79.40%
77.19%
72.29%
68.78%
67.73%
57.23%
57.23%
57.23%
37.55%
32.26%
CPXPARAM_MIP_Cuts_Disjunctive-MIRCut:Disjunctive 1
CPXPARAM_MIP_Cuts_Disjunctive-MIRCut:MIRCut 11
Instance34
Gap
100.00%
100.00%
66.38%
51.74%
38.39%
38.39%
38.39%
27.41%
24.35%
CPXPARAM_MIP_Cuts_Disjunctive-MIRCut:Disjunctive 1
CPXPARAM_MIP_Cuts_Disjunctive-MIRCut:MIRCut 4
Instance35
Gap
100.00%
100.00%
99.38%
98.77%
87.63%
73.22%
72.18%
72.13%
71.98%
70.06%
68.99%
60.16%
59.91%
57.55%
54.73%
54.66%
39.23%
18.61%
CPXPARAM_MIP_Cuts_Disjunctive-MIRCut:Disjunctive 8
CPXPARAM_MIP_Cuts_Disjunctive-MIRCut:MIRCut 10
Instance36
Gap
100.00%
100.00%
100.00%
85.27%
82.45%
73.85%
72.93%
69.52%
61.99%
61.37%
58.36%
51.90%
48.12%
47.82%
47.75%
47.66%
47.56%
46.90%
46.56%
46.34%
46.21%
46.19%
46.14%
46.14%
46.12%
45.36%
45.18%
CPXPARAM_MIP_Cuts_Disjunctive-MIRCut:Disjunctive 8
CPXPARAM_MIP_Cuts_Disjunctive-MIRCut:MIRCut 8
Instance37
Gap
100.00%
100.00%
100.00%
100.00%
100.00%
95.89%
77.74%
77.40%
76.38%
75.72%
67.01%
64.84%
62.37%
58.48%
CPXPARAM_MIP_Cuts_Disjunctive-MIRCut:Disjunctive 0
CPXPARAM_MIP_Cuts_Disjunctive-MIRCut:MIRCut 17
Instance38
Gap
100.00%
100.00%
78.46%
58.43%
34.42%
27.70%
23.53%
22.76%
22.12%
21.88%
21.54%
21.44%
21.36%
21.27%
21.26%
21.24%
21.24%
20.98%
20.95%
20.93%
20.92%
20.82%
CPXPARAM_MIP_Cuts_Disjunctive-MIRCut:Disjunctive 17
CPXPARAM_MIP_Cuts_Disjunctive-MIRCut:MIRCut 7
Instance39
Gap
100.00%
100.00%
99.77%
99.55%
94.65%
86.43%
84.36%
80.60%
56.77%
53.57%
38.46%
CPXPARAM_MIP_Cuts_Disjunctive-MIRCut:Disjunctive 0
CPXPARAM_MIP_Cuts_Disjunctive-MIRCut:MIRCut 10
